\ Model Sub model
\ LP format - for model browsing. Use MPS format to capture full model detail.
Minimize
  0.5 eta
Subject To
 eta=sumk: - L3[0] + eta = 0
 sumcdv<L3k[0,0]: 2272.940342393084 v[0,0,1] + 864.7174334865325 v[0,0,2]
   - L3[0] <= 0
 sumcdv<L3k[0,1]: 3153.719990881915 v[0,1,0] + 1121.977024482929 v[0,1,2]
   - L3[0] <= 0
 sumcdv<L3k[0,2]: 3101.800431999184 v[0,2,0] + 1535.200989421115 v[0,2,1]
   - L3[0] <= 0
 v<y+u[0,0,0]: v[0,0,0] - u[0,0] <= 0
 v<y+u[0,0,1]: v[0,0,1] - u[0,1] <= 0
 v<y+u[0,0,2]: v[0,0,2] - u[0,2] <= 1
 v<y+u[0,1,0]: v[0,1,0] - u[0,0] <= 0
 v<y+u[0,1,1]: v[0,1,1] - u[0,1] <= 0
 v<y+u[0,1,2]: v[0,1,2] - u[0,2] <= 1
 v<y+u[0,2,0]: v[0,2,0] - u[0,0] <= 0
 v<y+u[0,2,1]: v[0,2,1] - u[0,1] <= 0
 v<y+u[0,2,2]: v[0,2,2] - u[0,2] <= 1
 v<1-ak[0,0,0]: v[0,0,0] <= 1
 v<1-ak[0,0,1]: v[0,0,1] <= 1
 v<1-ak[0,0,2]: v[0,0,2] <= 0
 v<1-ak[0,1,0]: v[0,1,0] <= 1
 v<1-ak[0,1,1]: v[0,1,1] <= 1
 v<1-ak[0,1,2]: v[0,1,2] <= 0
 v<1-ak[0,2,0]: v[0,2,0] <= 1
 v<1-ak[0,2,1]: v[0,2,1] <= 1
 v<1-ak[0,2,2]: v[0,2,2] <= 0
 sumv[0,0]: v[0,0,0] + v[0,0,1] + v[0,0,2] = 1
 sumv[0,1]: v[0,1,0] + v[0,1,1] + v[0,1,2] = 1
 sumv[0,2]: v[0,2,0] + v[0,2,1] + v[0,2,2] = 1
 u+y<1[0,0]: u[0,0] <= 1
 u+y<1[0,1]: u[0,1] <= 1
 u+y<1[0,2]: u[0,2] <= 0
 u+ak<1[0,0]: u[0,0] <= 1
 u+ak<1[0,1]: u[0,1] <= 1
 u+ak<1[0,2]: u[0,2] <= 0
 2S-p[0]: u[0,0] + u[0,1] + u[0,2] = 1
Bounds
End
